Route #1: 102 104 7 153 12 46 140 145 122 22 23 206 154 211 158 24 72 89 103 82 14 97 71 98 81 202 109
Route #2: 80 190 166 52 5 208 19 126 36 43 152 151 65 192 199 115 105 111 204 176 172 201 26 11
Route #3: 205 117 180 88 191 59 131 62 189 188 2 120 113 196 3 68 58 163 210 21 9 63 177 61 184
Route #4: 17 64 51 100 127 197 123 101 136 25 121 135 143 179 116 137 207 38 156 1 181 186 114 175
Route #5: 87 165 167 132 187 170 168 173 84 162 86 160 183 178 149 161 146 108 185 79 155 119 182 169
Route #6: 67 130 194 159 171 164 60 13 27 195 35 141 31 144 99 50 39 54 148 53 83 33
Route #7: 8 85 125 112 94 209 93 128 133 134 45 95 77 174 20 47 18 147 200 16 6
Route #8: 124 73 74 40 42 66 69 203 55 48 78 91 44 56 49 92 10 118 34 129 138 139
Route #9: 150 110 142 29 28 198 4 106 157 57 70 90 37 32 15 30 41 193 76 75 96 107
Cost 84934
Time 368.92
